FourierSAT_Github_AIJ/benchmarks/MAXSAT_benchmarks/3/bipartite/maxcut-140-630-0.8/maxcut-140-630-0.8-4.cnf
c strEdges: 125  randomEdges: 504 
c degrees:  1  2 
c girth: Inf max: -43.604516  
c Hgirth mixed MAXCUT instance
c generated from an undirected graph
c to solve unweighted MaxCut
p cnf 140 1258
133 105 0
-133 -105 0
133 25 0
-133 -25 0
68 47 0
-68 -47 0
68 4 0
-68 -4 0
14 37 0
-14 -37 0
14 18 0
-14 -18 0
28 75 0
-28 -75 0
67 64 0
-67 -64 0
67 51 0
-67 -51 0
22 31 0
-22 -31 0
22 89 0
-22 -89 0
104 58 0
-104 -58 0
20 19 0
-20 -19 0
20 53 0
-20 -53 0
57 90 0
-57 -90 0
57 108 0
-57 -108 0
8 93 0
-8 -93 0
8 86 0
-8 -86 0
42 32 0
-42 -32 0
42 82 0
-42 -82 0
45 55 0
-45 -55 0
45 120 0
-45 -120 0
112 101 0
-112 -101 0
12 100 0
-12 -100 0
12 129 0
-12 -129 0
63 120 0
-63 -120 0
63 139 0
-63 -139 0
102 80 0
-102 -80 0
102 58 0
-102 -58 0
11 111 0
-11 -111 0
11 140 0
-11 -140 0
27 86 0
-27 -86 0
27 2 0
-27 -2 0
109 40 0
-109 -40 0
109 136 0
-109 -136 0
36 122 0
-36 -122 0
36 85 0
-36 -85 0
15 82 0
-15 -82 0
15 33 0
-15 -33 0
77 84 0
-77 -84 0
77 16 0
-77 -16 0
91 124 0
-91 -124 0
91 107 0
-91 -107 0
49 76 0
-49 -76 0
49 135 0
-49 -135 0
5 13 0
-5 -13 0
5 31 0
-5 -31 0
99 139 0
-99 -139 0
110 97 0
-110 -97 0
110 100 0
-110 -100 0
65 131 0
-65 -131 0
65 101 0
-65 -101 0
61 53 0
-61 -53 0
61 80 0
-61 -80 0
130 3 0
-130 -3 0
130 88 0
-130 -88 0
81 138 0
-81 -138 0
43 51 0
-43 -51 0
134 107 0
-134 -107 0
134 128 0
-134 -128 0
30 140 0
-30 -140 0
94 39 0
-94 -39 0
94 19 0
-94 -19 0
54 135 0
-54 -135 0
113 92 0
-113 -92 0
113 40 0
-113 -40 0
127 73 0
-127 -73 0
69 129 0
-69 -129 0
132 79 0
-132 -79 0
132 52 0
-132 -52 0
87 16 0
-87 -16 0
87 55 0
-87 -55 0
17 88 0
-17 -88 0
17 23 0
-17 -23 0
116 125 0
-116 -125 0
116 124 0
-116 -124 0
83 59 0
-83 -59 0
83 122 0
-83 -122 0
50 126 0
-50 -126 0
50 72 0
-50 -72 0
9 108 0
-9 -108 0
9 35 0
-9 -35 0
62 10 0
-62 -10 0
62 47 0
-62 -47 0
78 33 0
-78 -33 0
78 39 0
-78 -39 0
117 18 0
-117 -18 0
117 71 0
-117 -71 0
95 85 0
-95 -85 0
95 64 0
-95 -64 0
123 23 0
-123 -23 0
123 92 0
-123 -92 0
66 106 0
-66 -106 0
66 97 0
-66 -97 0
119 71 0
-119 -71 0
119 106 0
-119 -106 0
96 98 0
-96 -98 0
96 103 0
-96 -103 0
46 103 0
-46 -103 0
46 138 0
-46 -138 0
1 35 0
-1 -35 0
1 118 0
-1 -118 0
41 72 0
-41 -72 0
41 131 0
-41 -131 0
26 118 0
-26 -118 0
26 10 0
-26 -10 0
38 44 0
-38 -44 0
38 90 0
-38 -90 0
60 6 0
-60 -6 0
24 4 0
-24 -4 0
24 126 0
-24 -126 0
7 52 0
-7 -52 0
7 98 0
-7 -98 0
21 128 0
-21 -128 0
21 76 0
-21 -76 0
48 89 0
-48 -89 0
137 34 0
-137 -34 0
137 13 0
-137 -13 0
70 25 0
-70 -25 0
70 59 0
-70 -59 0
29 74 0
-29 -74 0
56 136 0
-56 -136 0
121 115 0
-121 -115 0
121 79 0
-121 -79 0
114 2 0
-114 -2 0
97 4 0
-97 -4 0
28 126 0
-28 -126 0
117 138 0
-117 -138 0
21 138 0
-21 -138 0
14 38 0
-14 -38 0
20 66 0
-20 -66 0
133 127 0
-133 -127 0
112 139 0
-112 -139 0
130 98 0
-130 -98 0
95 38 0
-95 -38 0
43 93 0
-43 -93 0
72 34 0
-72 -34 0
102 126 0
-102 -126 0
78 88 0
-78 -88 0
27 78 0
-27 -78 0
5 51 0
-5 -51 0
49 16 0
-49 -16 0
20 111 0
-20 -111 0
124 108 0
-124 -108 0
11 84 0
-11 -84 0
11 79 0
-11 -79 0
48 118 0
-48 -118 0
14 57 0
-14 -57 0
20 122 0
-20 -122 0
78 41 0
-78 -41 0
3 71 0
-3 -71 0
94 125 0
-94 -125 0
19 55 0
-19 -55 0
105 136 0
-105 -136 0
15 56 0
-15 -56 0
9 80 0
-9 -80 0
26 48 0
-26 -48 0
5 43 0
-5 -43 0
26 97 0
-26 -97 0
116 107 0
-116 -107 0
107 74 0
-107 -74 0
38 85 0
-38 -85 0
84 4 0
-84 -4 0
42 96 0
-42 -96 0
31 34 0
-31 -34 0
124 89 0
-124 -89 0
53 52 0
-53 -52 0
29 89 0
-29 -89 0
41 58 0
-41 -58 0
87 118 0
-87 -118 0
63 35 0
-63 -35 0
3 118 0
-3 -118 0
109 77 0
-109 -77 0
101 10 0
-101 -10 0
50 92 0
-50 -92 0
134 64 0
-134 -64 0
91 62 0
-91 -62 0
120 10 0
-120 -10 0
39 34 0
-39 -34 0
69 46 0
-69 -46 0
63 79 0
-63 -79 0
112 11 0
-112 -11 0
27 34 0
-27 -34 0
78 6 0
-78 -6 0
114 71 0
-114 -71 0
110 7 0
-110 -7 0
133 54 0
-133 -54 0
22 135 0
-22 -135 0
50 21 0
-50 -21 0
46 97 0
-46 -97 0
103 4 0
-103 -4 0
32 35 0
-32 -35 0
73 25 0
-73 -25 0
114 105 0
-114 -105 0
81 35 0
-81 -35 0
90 84 0
-90 -84 0
20 131 0
-20 -131 0
96 23 0
-96 -23 0
36 130 0
-36 -130 0
138 2 0
-138 -2 0
117 46 0
-117 -46 0
110 46 0
-110 -46 0
77 80 0
-77 -80 0
30 75 0
-30 -75 0
8 72 0
-8 -72 0
132 44 0
-132 -44 0
54 50 0
-54 -50 0
130 94 0
-130 -94 0
67 50 0
-67 -50 0
21 92 0
-21 -92 0
18 6 0
-18 -6 0
80 3 0
-80 -3 0
20 121 0
-20 -121 0
121 103 0
-121 -103 0
63 95 0
-63 -95 0
68 53 0
-68 -53 0
9 6 0
-9 -6 0
41 39 0
-41 -39 0
20 50 0
-20 -50 0
104 77 0
-104 -77 0
129 74 0
-129 -74 0
49 92 0
-49 -92 0
127 100 0
-127 -100 0
47 72 0
-47 -72 0
102 124 0
-102 -124 0
41 106 0
-41 -106 0
22 41 0
-22 -41 0
123 107 0
-123 -107 0
133 39 0
-133 -39 0
54 123 0
-54 -123 0
61 32 0
-61 -32 0
96 24 0
-96 -24 0
50 111 0
-50 -111 0
59 85 0
-59 -85 0
99 21 0
-99 -21 0
55 124 0
-55 -124 0
47 39 0
-47 -39 0
109 128 0
-109 -128 0
11 19 0
-11 -19 0
20 13 0
-20 -13 0
7 140 0
-7 -140 0
96 26 0
-96 -26 0
60 56 0
-60 -56 0
15 24 0
-15 -24 0
140 25 0
-140 -25 0
28 40 0
-28 -40 0
116 53 0
-116 -53 0
119 89 0
-119 -89 0
111 73 0
-111 -73 0
19 100 0
-19 -100 0
116 64 0
-116 -64 0
15 54 0
-15 -54 0
132 38 0
-132 -38 0
48 31 0
-48 -31 0
62 29 0
-62 -29 0
66 107 0
-66 -107 0
78 13 0
-78 -13 0
56 135 0
-56 -135 0
123 56 0
-123 -56 0
99 52 0
-99 -52 0
50 56 0
-50 -56 0
102 37 0
-102 -37 0
19 86 0
-19 -86 0
26 19 0
-26 -19 0
42 51 0
-42 -51 0
112 109 0
-112 -109 0
19 53 0
-19 -53 0
16 34 0
-16 -34 0
119 92 0
-119 -92 0
76 52 0
-76 -52 0
117 3 0
-117 -3 0
16 136 0
-16 -136 0
76 10 0
-76 -10 0
105 39 0
-105 -39 0
79 98 0
-79 -98 0
103 128 0
-103 -128 0
68 28 0
-68 -28 0
55 44 0
-55 -44 0
7 126 0
-7 -126 0
43 87 0
-43 -87 0
15 9 0
-15 -9 0
90 23 0
-90 -23 0
63 37 0
-63 -37 0
66 21 0
-66 -21 0
8 23 0
-8 -23 0
70 135 0
-70 -135 0
123 10 0
-123 -10 0
62 41 0
-62 -41 0
48 124 0
-48 -124 0
132 26 0
-132 -26 0
45 58 0
-45 -58 0
110 130 0
-110 -130 0
63 126 0
-63 -126 0
62 97 0
-62 -97 0
72 118 0
-72 -118 0
32 53 0
-32 -53 0
70 111 0
-70 -111 0
94 107 0
-94 -107 0
50 137 0
-50 -137 0
99 130 0
-99 -130 0
60 136 0
-60 -136 0
36 98 0
-36 -98 0
14 11 0
-14 -11 0
27 4 0
-27 -4 0
61 119 0
-61 -119 0
46 115 0
-46 -115 0
28 84 0
-28 -84 0
68 78 0
-68 -78 0
110 9 0
-110 -9 0
54 69 0
-54 -69 0
82 98 0
-82 -98 0
65 75 0
-65 -75 0
20 9 0
-20 -9 0
20 126 0
-20 -126 0
63 108 0
-63 -108 0
69 1 0
-69 -1 0
12 34 0
-12 -34 0
50 58 0
-50 -58 0
57 42 0
-57 -42 0
65 115 0
-65 -115 0
63 31 0
-63 -31 0
80 10 0
-80 -10 0
21 6 0
-21 -6 0
139 136 0
-139 -136 0
5 107 0
-5 -107 0
107 6 0
-107 -6 0
112 113 0
-112 -113 0
68 41 0
-68 -41 0
30 114 0
-30 -114 0
131 73 0
-131 -73 0
134 75 0
-134 -75 0
69 32 0
-69 -32 0
28 92 0
-28 -92 0
100 82 0
-100 -82 0
102 86 0
-102 -86 0
12 37 0
-12 -37 0
134 96 0
-134 -96 0
68 62 0
-68 -62 0
68 114 0
-68 -114 0
45 77 0
-45 -77 0
101 53 0
-101 -53 0
15 91 0
-15 -91 0
99 31 0
-99 -31 0
37 85 0
-37 -85 0
87 4 0
-87 -4 0
75 100 0
-75 -100 0
140 98 0
-140 -98 0
59 72 0
-59 -72 0
53 59 0
-53 -59 0
112 1 0
-112 -1 0
17 39 0
-17 -39 0
57 79 0
-57 -79 0
11 60 0
-11 -60 0
67 53 0
-67 -53 0
45 116 0
-45 -116 0
121 3 0
-121 -3 0
28 71 0
-28 -71 0
57 105 0
-57 -105 0
47 51 0
-47 -51 0
61 130 0
-61 -130 0
66 6 0
-66 -6 0
42 49 0
-42 -49 0
47 10 0
-47 -10 0
12 1 0
-12 -1 0
7 111 0
-7 -111 0
9 66 0
-9 -66 0
70 51 0
-70 -51 0
67 59 0
-67 -59 0
19 120 0
-19 -120 0
68 17 0
-68 -17 0
59 98 0
-59 -98 0
104 18 0
-104 -18 0
81 103 0
-81 -103 0
84 59 0
-84 -59 0
19 135 0
-19 -135 0
19 4 0
-19 -4 0
13 34 0
-13 -34 0
113 135 0
-113 -135 0
130 32 0
-130 -32 0
134 114 0
-134 -114 0
116 96 0
-116 -96 0
100 128 0
-100 -128 0
108 52 0
-108 -52 0
81 82 0
-81 -82 0
29 37 0
-29 -37 0
24 84 0
-24 -84 0
101 73 0
-101 -73 0
24 32 0
-24 -32 0
17 107 0
-17 -107 0
106 136 0
-106 -136 0
22 82 0
-22 -82 0
49 10 0
-49 -10 0
11 86 0
-11 -86 0
11 120 0
-11 -120 0
102 71 0
-102 -71 0
11 24 0
-11 -24 0
73 89 0
-73 -89 0
40 135 0
-40 -135 0
114 4 0
-114 -4 0
64 131 0
-64 -131 0
68 136 0
-68 -136 0
49 139 0
-49 -139 0
48 64 0
-48 -64 0
70 97 0
-70 -97 0
8 108 0
-8 -108 0
65 44 0
-65 -44 0
132 19 0
-132 -19 0
28 76 0
-28 -76 0
22 76 0
-22 -76 0
75 115 0
-75 -115 0
22 121 0
-22 -121 0
102 15 0
-102 -15 0
109 98 0
-109 -98 0
43 37 0
-43 -37 0
105 86 0
-105 -86 0
30 128 0
-30 -128 0
137 37 0
-137 -37 0
29 73 0
-29 -73 0
104 55 0
-104 -55 0
1 111 0
-1 -111 0
109 38 0
-109 -38 0
119 88 0
-119 -88 0
20 120 0
-20 -120 0
116 48 0
-116 -48 0
102 123 0
-102 -123 0
123 59 0
-123 -59 0
109 19 0
-109 -19 0
110 40 0
-110 -40 0
17 92 0
-17 -92 0
61 120 0
-61 -120 0
63 89 0
-63 -89 0
109 95 0
-109 -95 0
88 4 0
-88 -4 0
69 140 0
-69 -140 0
8 123 0
-8 -123 0
83 96 0
-83 -96 0
111 89 0
-111 -89 0
41 26 0
-41 -26 0
96 138 0
-96 -138 0
43 54 0
-43 -54 0
62 122 0
-62 -122 0
43 113 0
-43 -113 0
61 131 0
-61 -131 0
114 74 0
-114 -74 0
93 107 0
-93 -107 0
54 127 0
-54 -127 0
63 21 0
-63 -21 0
97 72 0
-97 -72 0
99 94 0
-99 -94 0
49 116 0
-49 -116 0
32 82 0
-32 -82 0
63 115 0
-63 -115 0
88 89 0
-88 -89 0
61 115 0
-61 -115 0
133 66 0
-133 -66 0
140 74 0
-140 -74 0
83 131 0
-83 -131 0
83 115 0
-83 -115 0
78 55 0
-78 -55 0
64 106 0
-64 -106 0
22 47 0
-22 -47 0
94 78 0
-94 -78 0
31 90 0
-31 -90 0
32 120 0
-32 -120 0
58 79 0
-58 -79 0
42 112 0
-42 -112 0
87 131 0
-87 -131 0
131 125 0
-131 -125 0
104 35 0
-104 -35 0
133 35 0
-133 -35 0
58 90 0
-58 -90 0
104 92 0
-104 -92 0
80 138 0
-80 -138 0
60 139 0
-60 -139 0
134 24 0
-134 -24 0
69 136 0
-69 -136 0
61 1 0
-61 -1 0
133 115 0
-133 -115 0
99 83 0
-99 -83 0
68 57 0
-68 -57 0
11 3 0
-11 -3 0
24 125 0
-24 -125 0
60 118 0
-60 -118 0
117 26 0
-117 -26 0
17 106 0
-17 -106 0
61 74 0
-61 -74 0
42 134 0
-42 -134 0
64 120 0
-64 -120 0
94 17 0
-94 -17 0
127 75 0
-127 -75 0
135 25 0
-135 -25 0
77 113 0
-77 -113 0
40 33 0
-40 -33 0
91 78 0
-91 -78 0
104 118 0
-104 -118 0
95 131 0
-95 -131 0
114 53 0
-114 -53 0
111 92 0
-111 -92 0
120 39 0
-120 -39 0
133 104 0
-133 -104 0
12 56 0
-12 -56 0
60 4 0
-60 -4 0
45 113 0
-45 -113 0
22 97 0
-22 -97 0
80 4 0
-80 -4 0
7 33 0
-7 -33 0
107 72 0
-107 -72 0
87 105 0
-87 -105 0
99 19 0
-99 -19 0
49 103 0
-49 -103 0
65 4 0
-65 -4 0
17 83 0
-17 -83 0
96 35 0
-96 -35 0
28 78 0
-28 -78 0
133 16 0
-133 -16 0
67 17 0
-67 -17 0
29 139 0
-29 -139 0
14 28 0
-14 -28 0
42 92 0
-42 -92 0
97 3 0
-97 -3 0
65 6 0
-65 -6 0
42 43 0
-42 -43 0
14 82 0
-14 -82 0
70 126 0
-70 -126 0
119 25 0
-119 -25 0
7 47 0
-7 -47 0
67 77 0
-67 -77 0
67 47 0
-67 -47 0
109 97 0
-109 -97 0
32 80 0
-32 -80 0
123 70 0
-123 -70 0
70 16 0
-70 -16 0
22 59 0
-22 -59 0
15 49 0
-15 -49 0
13 39 0
-13 -39 0
91 44 0
-91 -44 0
3 39 0
-3 -39 0
50 121 0
-50 -121 0
56 51 0
-56 -51 0
134 137 0
-134 -137 0
133 111 0
-133 -111 0
81 80 0
-81 -80 0
127 101 0
-127 -101 0
20 45 0
-20 -45 0
27 87 0
-27 -87 0
100 23 0
-100 -23 0
97 10 0
-97 -10 0
94 25 0
-94 -25 0
87 135 0
-87 -135 0
133 55 0
-133 -55 0
113 89 0
-113 -89 0
105 124 0
-105 -124 0
27 92 0
-27 -92 0
105 40 0
-105 -40 0
55 6 0
-55 -6 0
81 37 0
-81 -37 0
11 40 0
-11 -40 0
98 34 0
-98 -34 0
80 71 0
-80 -71 0
108 35 0
-108 -35 0
59 136 0
-59 -136 0
105 125 0
-105 -125 0
31 35 0
-31 -35 0
53 88 0
-53 -88 0
15 85 0
-15 -85 0
112 120 0
-112 -120 0
56 72 0
-56 -72 0
140 106 0
-140 -106 0
66 76 0
-66 -76 0
138 52 0
-138 -52 0
63 93 0
-63 -93 0
127 4 0
-127 -4 0
109 124 0
-109 -124 0
55 74 0
-55 -74 0
124 135 0
-124 -135 0
38 135 0
-38 -135 0
70 80 0
-70 -80 0
56 93 0
-56 -93 0
113 131 0
-113 -131 0
132 129 0
-132 -129 0
30 123 0
-30 -123 0
112 88 0
-112 -88 0
42 131 0
-42 -131 0
111 98 0
-111 -98 0
57 120 0
-57 -120 0
57 39 0
-57 -39 0
133 90 0
-133 -90 0
122 88 0
-122 -88 0
20 96 0
-20 -96 0
72 52 0
-72 -52 0
100 103 0
-100 -103 0
69 139 0
-69 -139 0
112 140 0
-112 -140 0
107 34 0
-107 -34 0
3 23 0
-3 -23 0
114 136 0
-114 -136 0
19 89 0
-19 -89 0
140 129 0
-140 -129 0
133 130 0
-133 -130 0
123 129 0
-123 -129 0
104 26 0
-104 -26 0
69 87 0
-69 -87 0
101 128 0
-101 -128 0
58 44 0
-58 -44 0
68 51 0
-68 -51 0
20 116 0
-20 -116 0
48 97 0
-48 -97 0
57 109 0
-57 -109 0
42 17 0
-42 -17 0
30 33 0
-30 -33 0
105 135 0
-105 -135 0
87 117 0
-87 -117 0
119 122 0
-119 -122 0
59 4 0
-59 -4 0
120 34 0
-120 -34 0
67 40 0
-67 -40 0
123 105 0
-123 -105 0
123 88 0
-123 -88 0
16 108 0
-16 -108 0
81 121 0
-81 -121 0
13 138 0
-13 -138 0
49 37 0
-49 -37 0
86 88 0
-86 -88 0
64 97 0
-64 -97 0
40 92 0
-40 -92 0
17 131 0
-17 -131 0
63 109 0
-63 -109 0
139 2 0
-139 -2 0
46 114 0
-46 -114 0
