FourierSAT_Github_AIJ/res/fs_1core/maxcut-140-630-0.8-4.cnf.txt
o 194
o 188
o 185
